c description: Random 3-CNF over 15 variables and 110 clauses
c generator: CNFgen (0.9.0)
c copyright: (C) 2012-2020 Massimo Lauria <massimo.lauria@uniroma1.it>
c url: https://massimolauria.net/cnfgen
c
p cnf 15 110
8 -11 12 0
-8 -9 -13 0
-2 -5 -10 0
-3 -7 -13 0
-2 -4 -8 0
1 7 11 0
-7 8 10 0
-6 8 11 0
-3 -12 14 0
2 11 15 0
8 14 15 0
-1 5 -10 0
6 7 -12 0
6 8 -15 0
-1 -4 6 0
1 -3 8 0
-3 9 13 0
-2 5 8 0
2 9 -14 0
-9 -11 -12 0
3 11 -13 0
5 -11 -13 0
-1 -8 11 0
5 -11 -12 0
8 -9 14 0
-1 -6 -8 0
-5 13 14 0
-13 -14 15 0
-9 10 -14 0
-1 7 14 0
-3 4 7 0
-1 12 13 0
-2 6 -8 0
1 -4 13 0
1 5 -12 0
7 10 -11 0
6 -10 -12 0
10 11 -14 0
-4 -9 -10 0
-4 8 10 0
9 11 13 0
-2 -6 -8 0
4 -9 -13 0
-4 -8 -10 0
1 2 3 0
6 10 11 0
-5 -6 -8 0
-3 11 -12 0
-2 3 -5 0
-3 -5 11 0
5 -6 11 0
3 -8 -11 0
-5 -10 -12 0
-1 -2 14 0
1 -9 -14 0
-5 6 -12 0
5 9 -13 0
-8 9 -12 0
-2 7 -11 0
-3 8 14 0
-2 13 -14 0
4 5 -8 0
1 -9 14 0
3 12 15 0
1 3 13 0
-6 8 13 0
-5 9 -13 0
4 -9 -11 0
-2 -4 12 0
-1 4 14 0
1 -2 12 0
-4 11 14 0
4 8 -14 0
-3 11 13 0
-6 8 -13 0
3 -6 8 0
1 2 -5 0
6 -12 -14 0
2 3 14 0
2 5 -13 0
2 -11 -12 0
13 -14 15 0
-3 -8 14 0
-1 -11 14 0
3 -6 15 0
5 9 13 0
4 5 -13 0
3 7 -14 0
-2 -6 -11 0
-3 12 -13 0
1 -6 -11 0
2 8 13 0
-9 -14 -15 0
-1 9 -11 0
-1 -4 15 0
4 8 10 0
-12 14 15 0
-2 4 7 0
-2 7 15 0
-1 -10 12 0
2 7 -8 0
-5 7 12 0
3 -14 15 0
3 14 -15 0
-2 -4 -9 0
-6 -9 -12 0
5 -9 11 0
-2 8 -15 0
4 7 -8 0
2 12 -14 0